
Gurobi 11.0.0 (win64) logging started Sat Jun 15 09:47:17 2024

Set parameter LogFile to value "./GurobiLog/stage_2_iter_6.log"
Gurobi Optimizer version 11.0.0 build v11.0.0rc2 (win64 - Windows 10.0 (18363.2))

CPU model: Intel(R) Core(TM) i7-8700 CPU @ 3.20GHz, instruction set [SSE2|AVX|AVX2]
Thread count: 6 physical cores, 12 logical processors, using up to 1 threads

Optimize a model with 1487 rows, 20456 columns and 49109 nonzeros
Coefficient statistics:
  Matrix range     [2e-02, 7e+03]
  Objective range  [1e-01, 2e+05]
  Bounds range     [2e+00, 7e+05]
  RHS range        [1e+00, 6e+04]
LP warm-start: use basis
Iteration    Objective       Primal Inf.    Dual Inf.      Time
       0    2.4072714e+04   7.916990e+03   0.000000e+00      0s
      90    3.3942016e+04   0.000000e+00   0.000000e+00      0s

Solved in 90 iterations and 0.01 seconds (0.00 work units)
Optimal objective  3.394201625e+04

Gurobi 11.0.0 (win64) logging started Sat Jun 15 10:45:58 2024

Set parameter LogFile to value "./GurobiLog/stage_2_iter_6.log"
Gurobi Optimizer version 11.0.0 build v11.0.0rc2 (win64 - Windows 10.0 (18363.2))

CPU model: Intel(R) Core(TM) i7-8700 CPU @ 3.20GHz, instruction set [SSE2|AVX|AVX2]
Thread count: 6 physical cores, 12 logical processors, using up to 1 threads

Optimize a model with 1487 rows, 20456 columns and 54481 nonzeros
Coefficient statistics:
  Matrix range     [3e-03, 1e+04]
  Objective range  [1e-01, 2e+05]
  Bounds range     [1e+00, 6e+05]
  RHS range        [1e+00, 5e+04]
LP warm-start: use basis
Iteration    Objective       Primal Inf.    Dual Inf.      Time
       0    1.5860048e+04   2.029277e+04   0.000000e+00      0s
     174    2.1564458e+04   0.000000e+00   0.000000e+00      0s

Solved in 174 iterations and 0.01 seconds (0.01 work units)
Optimal objective  2.156445833e+04

Gurobi 11.0.0 (win64) logging started Sat Jun 15 11:04:48 2024

Set parameter LogFile to value "./GurobiLog/stage_2_iter_6.log"
Gurobi Optimizer version 11.0.0 build v11.0.0rc2 (win64 - Windows 10.0 (18363.2))

CPU model: Intel(R) Core(TM) i7-8700 CPU @ 3.20GHz, instruction set [SSE2|AVX|AVX2]
Thread count: 6 physical cores, 12 logical processors, using up to 1 threads

Optimize a model with 1487 rows, 20456 columns and 49142 nonzeros
Coefficient statistics:
  Matrix range     [3e-02, 7e+03]
  Objective range  [1e-01, 2e+05]
  Bounds range     [6e-01, 9e+05]
  RHS range        [1e+00, 7e+04]
LP warm-start: use basis
Iteration    Objective       Primal Inf.    Dual Inf.      Time
       0    1.3278021e+04   3.941420e+04   0.000000e+00      0s
      93    2.5796929e+04   0.000000e+00   0.000000e+00      0s

Solved in 93 iterations and 0.01 seconds (0.01 work units)
Optimal objective  2.579692860e+04

Gurobi 11.0.0 (win64) logging started Tue Jul  2 10:39:10 2024

Set parameter LogFile to value "./GurobiLog/stage_2_iter_6.log"
Gurobi Optimizer version 11.0.0 build v11.0.0rc2 (win64 - Windows 10.0 (18363.2))

CPU model: Intel(R) Core(TM) i7-8700 CPU @ 3.20GHz, instruction set [SSE2|AVX|AVX2]
Thread count: 6 physical cores, 12 logical processors, using up to 1 threads

Optimize a model with 835 rows, 12350 columns and 28090 nonzeros
Coefficient statistics:
  Matrix range     [1e+00, 6e+01]
  Objective range  [1e+00, 2e+05]
  Bounds range     [3e+00, 1e+03]
  RHS range        [1e+00, 2e+04]
LP warm-start: use basis
Iteration    Objective       Primal Inf.    Dual Inf.      Time
       0    9.9776738e+05   1.163105e+03   0.000000e+00      0s
     118    1.0656012e+06   0.000000e+00   0.000000e+00      0s

Solved in 118 iterations and 0.01 seconds (0.00 work units)
Optimal objective  1.065601194e+06
